p cnf 10 48
1 -2 0
3 -2 0
4 -2 0
5 -2 0
6 -2 0
7 -2 0
8 -2 0
9 -2 0
10 -2 0
3 5 6 9 10 0
-3 -5 0
-3 -6 0
-3 -9 0
-3 -10 0
-5 -6 0
-5 -9 0
-5 -10 0
-6 -9 0
-6 -10 0
-9 -10 0
1 7 9 0
-1 -7 0
-1 -9 0
-7 -9 0
5 7 0
-5 -7 0
1 4 8 0
-1 -4 0
-1 -8 0
-4 -8 0
3 6 8 9 10 0
-3 -6 0
-3 -8 0
-3 -9 0
-3 -10 0
-6 -8 0
-6 -9 0
-6 -10 0
-8 -9 0
-8 -10 0
-9 -10 0
3 4 6 8 0
-3 -4 0
-3 -6 0
-3 -8 0
-4 -6 0
-4 -8 0
-6 -8 0
